\ENCODING=ISO-8859-1
\Problem name: 20_0

Minimize
 obj1: 100 COL00043#42 + 100 COL00044#43 + 100 COL00045#44 + 100 COL00046#45
       + 100 COL00047#46 + 100 COL00048#47 + 100 COL00049#48 + 100 COL00050#49
       + 100 COL00051#50 + 100 COL00052#51 + 100 COL00053#52 + 100 COL00054#53
       + 100 COL00055#54 + 100 COL00056#55 + 100 COL00057#56 + 100 COL00058#57
       + 100 COL00059#58 + 100 COL00060#59 + 100 COL00061#60 + 100 COL00062#61
       + 100 COL00063#62 + _eta#63 + [ 5000 COL00001#0 ^2 + 5000 COL00002#1 ^2
       + 5000 COL00003#2 ^2 + 5000 COL00004#3 ^2 + 5000 COL00005#4 ^2
       + 5000 COL00006#5 ^2 + 5000 COL00007#6 ^2 + 5000 COL00008#7 ^2
       + 5000 COL00009#8 ^2 + 5000 COL00010#9 ^2 + 5000 COL00011#10 ^2
       + 5000 COL00012#11 ^2 + 5000 COL00013#12 ^2 + 5000 COL00014#13 ^2
       + 5000 COL00015#14 ^2 + 5000 COL00016#15 ^2 + 5000 COL00017#16 ^2
       + 5000 COL00018#17 ^2 + 5000 COL00019#18 ^2 + 5000 COL00020#19 ^2
       + 5000 COL00021#20 ^2 + 5000 COL00022#21 ^2 + 5000 COL00023#22 ^2
       + 5000 COL00024#23 ^2 + 5000 COL00025#24 ^2 + 5000 COL00026#25 ^2
       + 5000 COL00027#26 ^2 + 5000 COL00028#27 ^2 + 5000 COL00029#28 ^2
       + 5000 COL00030#29 ^2 + 5000 COL00031#30 ^2 + 5000 COL00032#31 ^2
       + 5000 COL00033#32 ^2 + 5000 COL00034#33 ^2 + 5000 COL00035#34 ^2
       + 5000 COL00036#35 ^2 + 5000 COL00037#36 ^2 + 5000 COL00038#37 ^2
       + 5000 COL00039#38 ^2 + 5000 COL00040#39 ^2 + 5000 COL00041#40 ^2
       + 5000 COL00042#41 ^2 + 5000 COL00043#42 ^2 + 5000 COL00044#43 ^2
       + 5000 COL00045#44 ^2 + 5000 COL00046#45 ^2 + 5000 COL00047#46 ^2
       + 5000 COL00048#47 ^2 + 5000 COL00049#48 ^2 + 5000 COL00050#49 ^2
       + 5000 COL00051#50 ^2 + 5000 COL00052#51 ^2 + 5000 COL00053#52 ^2
       + 5000 COL00054#53 ^2 + 5000 COL00055#54 ^2 + 5000 COL00056#55 ^2
       + 5000 COL00057#56 ^2 + 5000 COL00058#57 ^2 + 5000 COL00059#58 ^2
       + 5000 COL00060#59 ^2 + 5000 COL00061#60 ^2 + 5000 COL00062#61 ^2
       + 5000 COL00063#62 ^2 ] / 2
Subject To
 ROW00001: COL00001#0 + COL00002#1 + COL00003#2 + COL00004#3 + COL00005#4
           + COL00006#5 + COL00007#6 + COL00008#7 + COL00009#8 + COL00010#9
           + COL00011#10 + COL00012#11 + COL00013#12 + COL00014#13
           + COL00015#14 + COL00016#15 + COL00017#16 + COL00018#17
           + COL00019#18 + COL00020#19 + COL00021#20  = 2.1316282072803e-14
 ROW00002: COL00022#21 + COL00023#22 + COL00024#23 + COL00025#24 + COL00026#25
           + COL00027#26 + COL00028#27 + COL00029#28 + COL00030#29
           + COL00031#30 + COL00032#31 + COL00033#32 + COL00034#33
           + COL00035#34 + COL00036#35 + COL00037#36 + COL00038#37
           + COL00039#38 + COL00040#39 + COL00041#40 + COL00042#41
            = -1.36779476633819e-13
 ROW00003: COL00043#42 + COL00044#43 + COL00045#44 + COL00046#45 + COL00047#46
           + COL00048#47 + COL00049#48 + COL00050#49 + COL00051#50
           + COL00052#51 + COL00053#52 + COL00054#53 + COL00055#54
           + COL00056#55 + COL00057#56 + COL00058#57 + COL00059#58
           + COL00060#59 + COL00061#60 + COL00062#61 + COL00063#62
           <= 9560.50820056539
 cut_0923: 119.1 COL00001#0 + 2.20000000000039 COL00002#1 + 15.95 COL00004#3
           + 705.85 COL00005#4 + 393.7 COL00006#5 + 642.3 COL00009#8
           + 778 COL00010#9 + 105.25 COL00011#10 + 33.9249999999998 COL00012#11
           + 87.9999999999998 COL00015#14 + 27.5 COL00018#17
           + 533.05 COL00020#19 + 119.1 COL00043#42
           + 2.20000000000039 COL00044#43 + 15.95 COL00046#45
           + 705.85 COL00047#46 + 393.7 COL00048#47 + 642.3 COL00051#50
           + 778 COL00052#51 + 105.25 COL00053#52
           + 33.9249999999998 COL00054#53 + 87.9999999999998 COL00057#56
           + 27.5 COL00060#59 + 533.05 COL00062#61 + 1.20711974110032 _eta#63
           >= 201967.373952344
 cut_0925: 166.4 COL00001#0 + 2.20000000000005 COL00002#1 + 15.95 COL00004#3
           + 725.85 COL00007#6 + 152.55 COL00011#10 + 869.1 COL00012#11
           + 47.3000000000001 COL00014#13 + 88.0000000000001 COL00015#14
           + 27.4999999999999 COL00018#17 + 499.4 COL00019#18
           + 166.4 COL00043#42 + 2.20000000000005 COL00044#43
           + 15.95 COL00046#45 + 725.85 COL00049#48 + 152.55 COL00053#52
           + 869.1 COL00054#53 + 47.3000000000001 COL00056#55
           + 88.0000000000001 COL00057#56 + 27.4999999999999 COL00060#59
           + 499.4 COL00061#60 + 1.20322580645161 _eta#63 >= 202036.057095869
 cut_0929: 119.1 COL00001#0 + 2.20000000000005 COL00002#1 + 15.95 COL00004#3
           + 705.85 COL00005#4 + 778 COL00010#9 + 105.25 COL00011#10
           + 33.925 COL00012#11 + 87.9999999999999 COL00015#14
           + 27.5 COL00018#17 + 533.05 COL00020#19 + 119.1 COL00043#42
           + 2.20000000000005 COL00044#43 + 15.95 COL00046#45
           + 705.85 COL00047#46 + 778 COL00052#51 + 105.25 COL00053#52
           + 33.925 COL00054#53 + 87.9999999999999 COL00057#56
           + 27.5 COL00060#59 + 533.05 COL00062#61 + 1.19935691318328 _eta#63
           >= 201947.280872338
 cut_0931: 166.4 COL00001#0 + 2.19999999999987 COL00002#1
           + 15.9499999999999 COL00004#3 + 346.4 COL00006#5 + 725.85 COL00007#6
           + 152.55 COL00011#10 + 57.5750000000002 COL00012#11
           + 47.3000000000001 COL00014#13 + 88.0000000000001 COL00015#14
           + 27.5 COL00018#17 + 499.4 COL00019#18 + 166.4 COL00043#42
           + 2.19999999999987 COL00044#43 + 15.9499999999999 COL00046#45
           + 346.4 COL00048#47 + 725.85 COL00049#48 + 152.55 COL00053#52
           + 57.5750000000002 COL00054#53 + 47.3000000000001 COL00056#55
           + 88.0000000000001 COL00057#56 + 27.5 COL00060#59
           + 499.4 COL00061#60 + 1.19551282051282 _eta#63 >= 202003.68123394
 cut_0935: 119.1 COL00001#0 + 2.20000000000005 COL00002#1 + 15.95 COL00004#3
           + 705.85 COL00005#4 + 778 COL00010#9 + 105.25 COL00011#10
           + 33.925 COL00012#11 + 87.9999999999999 COL00015#14
           + 27.5 COL00018#17 + 533.05 COL00020#19 + 119.1 COL00043#42
           + 2.20000000000005 COL00044#43 + 15.95 COL00046#45
           + 705.85 COL00047#46 + 778 COL00052#51 + 105.25 COL00053#52
           + 33.925 COL00054#53 + 87.9999999999999 COL00057#56
           + 27.5 COL00060#59 + 533.05 COL00062#61 + 1.19169329073482 _eta#63
           >= 201947.280872338
 cut_0937: 166.4 COL00001#0 + 2.19999999999999 COL00002#1
           + 15.9499999999999 COL00004#3 + 346.4 COL00006#5 + 642.3 COL00009#8
           + 152.55 COL00011#10 + 57.575 COL00012#11 + 47.3 COL00014#13
           + 88.0000000000001 COL00015#14 + 27.5000000000002 COL00018#17
           + 499.4 COL00019#18 + 166.4 COL00043#42
           + 2.19999999999999 COL00044#43 + 15.9499999999999 COL00046#45
           + 346.4 COL00048#47 + 642.3 COL00051#50 + 152.55 COL00053#52
           + 57.575 COL00054#53 + 47.3 COL00056#55
           + 88.0000000000001 COL00057#56 + 27.5000000000002 COL00060#59
           + 499.4 COL00061#60 + 1.18789808917197 _eta#63 >= 202074.873576273
 cut_0941: 119.1 COL00001#0 + 2.19999999999996 COL00002#1 + 15.95 COL00004#3
           + 705.85 COL00005#4 + 778 COL00010#9 + 105.25 COL00011#10
           + 869.1 COL00012#11 + 88.0000000000001 COL00015#14
           + 27.4999999999999 COL00018#17 + 533.05 COL00020#19
           + 119.1 COL00043#42 + 2.19999999999996 COL00044#43
           + 15.95 COL00046#45 + 705.85 COL00047#46 + 778 COL00052#51
           + 105.25 COL00053#52 + 869.1 COL00054#53
           + 88.0000000000001 COL00057#56 + 27.4999999999999 COL00060#59
           + 533.05 COL00062#61 + 1.18412698412698 _eta#63 >= 201981.601273249
 cut_0943: 119.1 COL00001#0 + 2.20000000000005 COL00002#1
           + 15.9500000000002 COL00004#3 + 393.7 COL00006#5
           + 105.25 COL00011#10 + 33.9250000000001 COL00012#11
           + 87.9999999999999 COL00015#14 + 27.5 COL00018#17
           + 499.4 COL00019#18 + 119.1 COL00043#42
           + 2.20000000000005 COL00044#43 + 15.9500000000002 COL00046#45
           + 393.7 COL00048#47 + 105.25 COL00053#52
           + 33.9250000000001 COL00054#53 + 87.9999999999999 COL00057#56
           + 27.5 COL00060#59 + 499.4 COL00061#60 + 1.18037974683544 _eta#63
           >= 202055.727366967
 cut_0947: 119.1 COL00001#0 + 2.19999999999993 COL00002#1
           + 15.9499999999999 COL00004#3 + 705.85 COL00005#4 + 642.3 COL00009#8
           + 778 COL00010#9 + 105.25 COL00011#10 + 33.925 COL00012#11
           + 87.9999999999999 COL00015#14 + 27.5 COL00018#17
           + 533.05 COL00020#19 + 119.1 COL00043#42
           + 2.19999999999993 COL00044#43 + 15.9499999999999 COL00046#45
           + 705.85 COL00047#46 + 642.3 COL00051#50 + 778 COL00052#51
           + 105.25 COL00053#52 + 33.925 COL00054#53
           + 87.9999999999999 COL00057#56 + 27.5 COL00060#59
           + 533.05 COL00062#61 + 1.17665615141956 _eta#63 >= 201966.26846249
 cut_0949: 166.4 COL00001#0 + 2.20000000000005 COL00002#1
           + 15.9500000000003 COL00004#3 + 346.4 COL00006#5
           + 152.55 COL00011#10 + 869.1 COL00012#11 + 47.3 COL00014#13
           + 88.0000000000001 COL00015#14 + 27.5 COL00018#17
           + 499.4 COL00019#18 + 166.4 COL00043#42
           + 2.20000000000005 COL00044#43 + 15.9500000000003 COL00046#45
           + 346.4 COL00048#47 + 152.55 COL00053#52 + 869.1 COL00054#53
           + 47.3 COL00056#55 + 88.0000000000001 COL00057#56 + 27.5 COL00060#59
           + 499.4 COL00061#60 + 1.17295597484277 _eta#63 >= 202089.234521876
 cut_0953: 119.1 COL00001#0 + 2.19999999999993 COL00002#1
           + 15.9499999999999 COL00004#3 + 705.85 COL00005#4 + 642.3 COL00009#8
           + 778 COL00010#9 + 105.25 COL00011#10 + 33.925 COL00012#11
           + 87.9999999999999 COL00015#14 + 27.5 COL00018#17
           + 533.05 COL00020#19 + 119.1 COL00043#42
           + 2.19999999999993 COL00044#43 + 15.9499999999999 COL00046#45
           + 705.85 COL00047#46 + 642.3 COL00051#50 + 778 COL00052#51
           + 105.25 COL00053#52 + 33.925 COL00054#53
           + 87.9999999999999 COL00057#56 + 27.5 COL00060#59
           + 533.05 COL00062#61 + 1.1692789968652 _eta#63 >= 201966.26846249
 cut_0955: 166.4 COL00001#0 + 2.20000000000005 COL00002#1
           + 15.9500000000003 COL00004#3 + 346.4 COL00006#5
           + 152.55 COL00011#10 + 869.1 COL00012#11 + 47.3 COL00014#13
           + 88.0000000000001 COL00015#14 + 27.5 COL00018#17
           + 499.4 COL00019#18 + 166.4 COL00043#42
           + 2.20000000000005 COL00044#43 + 15.9500000000003 COL00046#45
           + 346.4 COL00048#47 + 152.55 COL00053#52 + 869.1 COL00054#53
           + 47.3 COL00056#55 + 88.0000000000001 COL00057#56 + 27.5 COL00060#59
           + 499.4 COL00061#60 + 1.165625 _eta#63 >= 202089.234521876
 cut_0959: 119.1 COL00001#0 + 2.19999999999993 COL00002#1
           + 15.9499999999999 COL00004#3 + 705.85 COL00005#4 + 642.3 COL00009#8
           + 778 COL00010#9 + 105.25 COL00011#10 + 33.925 COL00012#11
           + 87.9999999999999 COL00015#14 + 27.5 COL00018#17
           + 533.05 COL00020#19 + 119.1 COL00043#42
           + 2.19999999999993 COL00044#43 + 15.9499999999999 COL00046#45
           + 705.85 COL00047#46 + 642.3 COL00051#50 + 778 COL00052#51
           + 105.25 COL00053#52 + 33.925 COL00054#53
           + 87.9999999999999 COL00057#56 + 27.5 COL00060#59
           + 533.05 COL00062#61 + 1.16199376947041 _eta#63 >= 201966.26846249
 cut_0961: 166.4 COL00001#0 + 2.20000000000005 COL00002#1
           + 15.9500000000003 COL00004#3 + 346.4 COL00006#5
           + 152.55 COL00011#10 + 869.1 COL00012#11 + 47.3 COL00014#13
           + 88.0000000000001 COL00015#14 + 27.5 COL00018#17
           + 499.4 COL00019#18 + 166.4 COL00043#42
           + 2.20000000000005 COL00044#43 + 15.9500000000003 COL00046#45
           + 346.4 COL00048#47 + 152.55 COL00053#52 + 869.1 COL00054#53
           + 47.3 COL00056#55 + 88.0000000000001 COL00057#56 + 27.5 COL00060#59
           + 499.4 COL00061#60 + 1.1583850931677 _eta#63 >= 202089.234521877
 cut_0965: 119.1 COL00001#0 + 2.19999999999993 COL00002#1
           + 15.9499999999999 COL00004#3 + 705.85 COL00005#4 + 642.3 COL00009#8
           + 778 COL00010#9 + 105.25 COL00011#10 + 33.925 COL00012#11
           + 87.9999999999999 COL00015#14 + 27.5 COL00018#17
           + 533.05 COL00020#19 + 119.1 COL00043#42
           + 2.19999999999993 COL00044#43 + 15.9499999999999 COL00046#45
           + 705.85 COL00047#46 + 642.3 COL00051#50 + 778 COL00052#51
           + 105.25 COL00053#52 + 33.925 COL00054#53
           + 87.9999999999999 COL00057#56 + 27.5 COL00060#59
           + 533.05 COL00062#61 + 1.15479876160991 _eta#63 >= 201966.26846249
 cut_0967: 166.4 COL00001#0 + 2.20000000000005 COL00002#1
           + 15.9500000000003 COL00004#3 + 346.4 COL00006#5
           + 152.55 COL00011#10 + 869.1 COL00012#11 + 47.3 COL00014#13
           + 88.0000000000001 COL00015#14 + 27.5 COL00018#17
           + 499.4 COL00019#18 + 166.4 COL00043#42
           + 2.20000000000005 COL00044#43 + 15.9500000000003 COL00046#45
           + 346.4 COL00048#47 + 152.55 COL00053#52 + 869.1 COL00054#53
           + 47.3 COL00056#55 + 88.0000000000001 COL00057#56 + 27.5 COL00060#59
           + 499.4 COL00061#60 + 1.15123456790123 _eta#63 >= 202089.234521877
 cut_0971: 119.1 COL00001#0 + 2.19999999999993 COL00002#1
           + 15.9499999999999 COL00004#3 + 705.85 COL00005#4 + 642.3 COL00009#8
           + 778 COL00010#9 + 105.25 COL00011#10 + 33.925 COL00012#11
           + 87.9999999999999 COL00015#14 + 27.5 COL00018#17
           + 533.05 COL00020#19 + 119.1 COL00043#42
           + 2.19999999999993 COL00044#43 + 15.9499999999999 COL00046#45
           + 705.85 COL00047#46 + 642.3 COL00051#50 + 778 COL00052#51
           + 105.25 COL00053#52 + 33.925 COL00054#53
           + 87.9999999999999 COL00057#56 + 27.5 COL00060#59
           + 533.05 COL00062#61 + 1.14769230769231 _eta#63 >= 201966.26846249
 cut_0973: 166.4 COL00001#0 + 2.20000000000005 COL00002#1
           + 15.9500000000003 COL00004#3 + 346.4 COL00006#5
           + 152.55 COL00011#10 + 869.1 COL00012#11 + 47.3 COL00014#13
           + 88.0000000000001 COL00015#14 + 27.5 COL00018#17
           + 499.4 COL00019#18 + 166.4 COL00043#42
           + 2.20000000000005 COL00044#43 + 15.9500000000003 COL00046#45
           + 346.4 COL00048#47 + 152.55 COL00053#52 + 869.1 COL00054#53
           + 47.3 COL00056#55 + 88.0000000000001 COL00057#56 + 27.5 COL00060#59
           + 499.4 COL00061#60 + 1.1441717791411 _eta#63 >= 202089.234521876
 cut_0977: 119.1 COL00001#0 + 2.19999999999993 COL00002#1
           + 15.9499999999999 COL00004#3 + 705.85 COL00005#4 + 642.3 COL00009#8
           + 778 COL00010#9 + 105.25 COL00011#10 + 33.925 COL00012#11
           + 87.9999999999999 COL00015#14 + 27.5 COL00018#17
           + 533.05 COL00020#19 + 119.1 COL00043#42
           + 2.19999999999993 COL00044#43 + 15.9499999999999 COL00046#45
           + 705.85 COL00047#46 + 642.3 COL00051#50 + 778 COL00052#51
           + 105.25 COL00053#52 + 33.925 COL00054#53
           + 87.9999999999999 COL00057#56 + 27.5 COL00060#59
           + 533.05 COL00062#61 + 1.14067278287462 _eta#63 >= 201966.26846249
 cut_0979: 166.4 COL00001#0 + 2.20000000000005 COL00002#1
           + 15.9500000000003 COL00004#3 + 346.4 COL00006#5
           + 152.55 COL00011#10 + 869.1 COL00012#11 + 47.3 COL00014#13
           + 88.0000000000001 COL00015#14 + 27.5 COL00018#17
           + 499.4 COL00019#18 + 166.4 COL00043#42
           + 2.20000000000005 COL00044#43 + 15.9500000000003 COL00046#45
           + 346.4 COL00048#47 + 152.55 COL00053#52 + 869.1 COL00054#53
           + 47.3 COL00056#55 + 88.0000000000001 COL00057#56 + 27.5 COL00060#59
           + 499.4 COL00061#60 + 1.13719512195122 _eta#63 >= 202089.234521876
 cut_0983: 119.1 COL00001#0 + 2.19999999999993 COL00002#1
           + 15.9499999999999 COL00004#3 + 705.85 COL00005#4 + 642.3 COL00009#8
           + 778 COL00010#9 + 105.25 COL00011#10 + 33.925 COL00012#11
           + 87.9999999999999 COL00015#14 + 27.5 COL00018#17
           + 533.05 COL00020#19 + 119.1 COL00043#42
           + 2.19999999999993 COL00044#43 + 15.9499999999999 COL00046#45
           + 705.85 COL00047#46 + 642.3 COL00051#50 + 778 COL00052#51
           + 105.25 COL00053#52 + 33.925 COL00054#53
           + 87.9999999999999 COL00057#56 + 27.5 COL00060#59
           + 533.05 COL00062#61 + 1.13373860182371 _eta#63 >= 201966.26846249
 cut_0985: 166.4 COL00001#0 + 2.20000000000005 COL00002#1
           + 15.9500000000003 COL00004#3 + 346.4 COL00006#5
           + 152.55 COL00011#10 + 869.1 COL00012#11 + 47.3 COL00014#13
           + 88.0000000000001 COL00015#14 + 27.5 COL00018#17
           + 499.4 COL00019#18 + 166.4 COL00043#42
           + 2.20000000000005 COL00044#43 + 15.9500000000003 COL00046#45
           + 346.4 COL00048#47 + 152.55 COL00053#52 + 869.1 COL00054#53
           + 47.3 COL00056#55 + 88.0000000000001 COL00057#56 + 27.5 COL00060#59
           + 499.4 COL00061#60 + 1.13030303030303 _eta#63 >= 202089.234521876
 cut_0989: 119.1 COL00001#0 + 2.19999999999993 COL00002#1
           + 15.9499999999999 COL00004#3 + 705.85 COL00005#4 + 642.3 COL00009#8
           + 778 COL00010#9 + 105.25 COL00011#10 + 33.925 COL00012#11
           + 87.9999999999999 COL00015#14 + 27.5 COL00018#17
           + 533.05 COL00020#19 + 119.1 COL00043#42
           + 2.19999999999993 COL00044#43 + 15.9499999999999 COL00046#45
           + 705.85 COL00047#46 + 642.3 COL00051#50 + 778 COL00052#51
           + 105.25 COL00053#52 + 33.925 COL00054#53
           + 87.9999999999999 COL00057#56 + 27.5 COL00060#59
           + 533.05 COL00062#61 + 1.12688821752266 _eta#63 >= 201966.26846249
 cut_0991: 166.4 COL00001#0 + 2.20000000000005 COL00002#1
           + 15.9500000000003 COL00004#3 + 346.4 COL00006#5
           + 152.55 COL00011#10 + 869.1 COL00012#11 + 47.3 COL00014#13
           + 88.0000000000001 COL00015#14 + 27.5 COL00018#17
           + 499.4 COL00019#18 + 166.4 COL00043#42
           + 2.20000000000005 COL00044#43 + 15.9500000000003 COL00046#45
           + 346.4 COL00048#47 + 152.55 COL00053#52 + 869.1 COL00054#53
           + 47.3 COL00056#55 + 88.0000000000001 COL00057#56 + 27.5 COL00060#59
           + 499.4 COL00061#60 + 1.12349397590361 _eta#63 >= 202089.234521877
 cut_0995: 119.1 COL00001#0 + 2.19999999999993 COL00002#1
           + 15.9499999999999 COL00004#3 + 705.85 COL00005#4 + 642.3 COL00009#8
           + 778 COL00010#9 + 105.25 COL00011#10 + 33.925 COL00012#11
           + 87.9999999999999 COL00015#14 + 27.5 COL00018#17
           + 533.05 COL00020#19 + 119.1 COL00043#42
           + 2.19999999999993 COL00044#43 + 15.9499999999999 COL00046#45
           + 705.85 COL00047#46 + 642.3 COL00051#50 + 778 COL00052#51
           + 105.25 COL00053#52 + 33.925 COL00054#53
           + 87.9999999999999 COL00057#56 + 27.5 COL00060#59
           + 533.05 COL00062#61 + 1.12012012012012 _eta#63 >= 201966.26846249
 cut_0997: 166.4 COL00001#0 + 2.20000000000005 COL00002#1
           + 15.9500000000003 COL00004#3 + 346.4 COL00006#5
           + 152.55 COL00011#10 + 869.1 COL00012#11 + 47.3 COL00014#13
           + 88.0000000000001 COL00015#14 + 27.5 COL00018#17
           + 499.4 COL00019#18 + 166.4 COL00043#42
           + 2.20000000000005 COL00044#43 + 15.9500000000003 COL00046#45
           + 346.4 COL00048#47 + 152.55 COL00053#52 + 869.1 COL00054#53
           + 47.3 COL00056#55 + 88.0000000000001 COL00057#56 + 27.5 COL00060#59
           + 499.4 COL00061#60 + 1.11676646706587 _eta#63 >= 202089.234521877
 cut_1001: 119.1 COL00001#0 + 2.19999999999993 COL00002#1
           + 15.9499999999999 COL00004#3 + 705.85 COL00005#4 + 642.3 COL00009#8
           + 778 COL00010#9 + 105.25 COL00011#10 + 33.925 COL00012#11
           + 87.9999999999999 COL00015#14 + 27.5 COL00018#17
           + 533.05 COL00020#19 + 119.1 COL00043#42
           + 2.19999999999993 COL00044#43 + 15.9499999999999 COL00046#45
           + 705.85 COL00047#46 + 642.3 COL00051#50 + 778 COL00052#51
           + 105.25 COL00053#52 + 33.925 COL00054#53
           + 87.9999999999999 COL00057#56 + 27.5 COL00060#59
           + 533.05 COL00062#61 + 1.1134328358209 _eta#63 >= 201966.26846249
 cut_1003: 166.4 COL00001#0 + 2.20000000000005 COL00002#1
           + 15.9500000000003 COL00004#3 + 346.4 COL00006#5
           + 152.55 COL00011#10 + 869.1 COL00012#11 + 47.3 COL00014#13
           + 88.0000000000001 COL00015#14 + 27.5 COL00018#17
           + 499.4 COL00019#18 + 166.4 COL00043#42
           + 2.20000000000005 COL00044#43 + 15.9500000000003 COL00046#45
           + 346.4 COL00048#47 + 152.55 COL00053#52 + 869.1 COL00054#53
           + 47.3 COL00056#55 + 88.0000000000001 COL00057#56 + 27.5 COL00060#59
           + 499.4 COL00061#60 + 1.11011904761905 _eta#63 >= 202089.234521876
 cut_1007: 119.1 COL00001#0 + 2.19999999999993 COL00002#1
           + 15.9499999999999 COL00004#3 + 705.85 COL00005#4 + 642.3 COL00009#8
           + 778 COL00010#9 + 105.25 COL00011#10 + 33.925 COL00012#11
           + 87.9999999999999 COL00015#14 + 27.5 COL00018#17
           + 533.05 COL00020#19 + 119.1 COL00043#42
           + 2.19999999999993 COL00044#43 + 15.9499999999999 COL00046#45
           + 705.85 COL00047#46 + 642.3 COL00051#50 + 778 COL00052#51
           + 105.25 COL00053#52 + 33.925 COL00054#53
           + 87.9999999999999 COL00057#56 + 27.5 COL00060#59
           + 533.05 COL00062#61 + 1.10682492581602 _eta#63 >= 201966.26846249
 cut_1009: 166.4 COL00001#0 + 2.20000000000005 COL00002#1
           + 15.9500000000003 COL00004#3 + 346.4 COL00006#5
           + 152.55 COL00011#10 + 869.1 COL00012#11 + 47.3 COL00014#13
           + 88.0000000000001 COL00015#14 + 27.5 COL00018#17
           + 499.4 COL00019#18 + 166.4 COL00043#42
           + 2.20000000000005 COL00044#43 + 15.9500000000003 COL00046#45
           + 346.4 COL00048#47 + 152.55 COL00053#52 + 869.1 COL00054#53
           + 47.3 COL00056#55 + 88.0000000000001 COL00057#56 + 27.5 COL00060#59
           + 499.4 COL00061#60 + 1.10355029585799 _eta#63 >= 202089.234521876
 cut_1013: 119.1 COL00001#0 + 2.19999999999993 COL00002#1
           + 15.9499999999999 COL00004#3 + 705.85 COL00005#4 + 642.3 COL00009#8
           + 778 COL00010#9 + 105.25 COL00011#10 + 33.925 COL00012#11
           + 87.9999999999999 COL00015#14 + 27.5 COL00018#17
           + 533.05 COL00020#19 + 119.1 COL00043#42
           + 2.19999999999993 COL00044#43 + 15.9499999999999 COL00046#45
           + 705.85 COL00047#46 + 642.3 COL00051#50 + 778 COL00052#51
           + 105.25 COL00053#52 + 33.925 COL00054#53
           + 87.9999999999999 COL00057#56 + 27.5 COL00060#59
           + 533.05 COL00062#61 + 1.10029498525074 _eta#63 >= 201966.26846249
 cut_1015: 166.4 COL00001#0 + 2.20000000000005 COL00002#1
           + 15.9500000000003 COL00004#3 + 346.4 COL00006#5
           + 152.55 COL00011#10 + 869.1 COL00012#11 + 47.3 COL00014#13
           + 88.0000000000001 COL00015#14 + 27.5 COL00018#17
           + 499.4 COL00019#18 + 166.4 COL00043#42
           + 2.20000000000005 COL00044#43 + 15.9500000000003 COL00046#45
           + 346.4 COL00048#47 + 152.55 COL00053#52 + 869.1 COL00054#53
           + 47.3 COL00056#55 + 88.0000000000001 COL00057#56 + 27.5 COL00060#59
           + 499.4 COL00061#60 + 1.09705882352941 _eta#63 >= 202089.234521876
 cut_1019: 119.1 COL00001#0 + 2.19999999999993 COL00002#1
           + 15.9499999999999 COL00004#3 + 705.85 COL00005#4 + 642.3 COL00009#8
           + 778 COL00010#9 + 105.25 COL00011#10 + 33.925 COL00012#11
           + 87.9999999999999 COL00015#14 + 27.5 COL00018#17
           + 533.05 COL00020#19 + 119.1 COL00043#42
           + 2.19999999999993 COL00044#43 + 15.9499999999999 COL00046#45
           + 705.85 COL00047#46 + 642.3 COL00051#50 + 778 COL00052#51
           + 105.25 COL00053#52 + 33.925 COL00054#53
           + 87.9999999999999 COL00057#56 + 27.5 COL00060#59
           + 533.05 COL00062#61 + 1.09384164222874 _eta#63 >= 201966.26846249
 cut_1021: 166.4 COL00001#0 + 2.20000000000005 COL00002#1
           + 15.9500000000003 COL00004#3 + 346.4 COL00006#5
           + 152.55 COL00011#10 + 869.1 COL00012#11 + 47.3 COL00014#13
           + 88.0000000000001 COL00015#14 + 27.5 COL00018#17
           + 499.4 COL00019#18 + 166.4 COL00043#42
           + 2.20000000000005 COL00044#43 + 15.9500000000003 COL00046#45
           + 346.4 COL00048#47 + 152.55 COL00053#52 + 869.1 COL00054#53
           + 47.3 COL00056#55 + 88.0000000000001 COL00057#56 + 27.5 COL00060#59
           + 499.4 COL00061#60 + 1.0906432748538 _eta#63 >= 202089.234521877
 cut_1025: 119.1 COL00001#0 + 2.19999999999993 COL00002#1
           + 15.9499999999999 COL00004#3 + 705.85 COL00005#4 + 642.3 COL00009#8
           + 778 COL00010#9 + 105.25 COL00011#10 + 33.925 COL00012#11
           + 87.9999999999999 COL00015#14 + 27.5 COL00018#17
           + 533.05 COL00020#19 + 119.1 COL00043#42
           + 2.19999999999993 COL00044#43 + 15.9499999999999 COL00046#45
           + 705.85 COL00047#46 + 642.3 COL00051#50 + 778 COL00052#51
           + 105.25 COL00053#52 + 33.925 COL00054#53
           + 87.9999999999999 COL00057#56 + 27.5 COL00060#59
           + 533.05 COL00062#61 + 1.08746355685131 _eta#63 >= 201966.26846249
 cut_1027: 166.4 COL00001#0 + 2.20000000000005 COL00002#1
           + 15.9500000000003 COL00004#3 + 346.4 COL00006#5
           + 152.55 COL00011#10 + 869.1 COL00012#11 + 47.3 COL00014#13
           + 88.0000000000001 COL00015#14 + 27.5 COL00018#17
           + 499.4 COL00019#18 + 166.4 COL00043#42
           + 2.20000000000005 COL00044#43 + 15.9500000000003 COL00046#45
           + 346.4 COL00048#47 + 152.55 COL00053#52 + 869.1 COL00054#53
           + 47.3 COL00056#55 + 88.0000000000001 COL00057#56 + 27.5 COL00060#59
           + 499.4 COL00061#60 + 1.0843023255814 _eta#63 >= 202089.234521877
 cut_1031: 119.1 COL00001#0 + 2.19999999999993 COL00002#1
           + 15.9499999999999 COL00004#3 + 705.85 COL00005#4 + 642.3 COL00009#8
           + 778 COL00010#9 + 105.25 COL00011#10 + 33.925 COL00012#11
           + 87.9999999999999 COL00015#14 + 27.5 COL00018#17
           + 533.05 COL00020#19 + 119.1 COL00043#42
           + 2.19999999999993 COL00044#43 + 15.9499999999999 COL00046#45
           + 705.85 COL00047#46 + 642.3 COL00051#50 + 778 COL00052#51
           + 105.25 COL00053#52 + 33.925 COL00054#53
           + 87.9999999999999 COL00057#56 + 27.5 COL00060#59
           + 533.05 COL00062#61 + 1.08115942028986 _eta#63 >= 201966.26846249
 cut_1033: 166.4 COL00001#0 + 2.20000000000005 COL00002#1
           + 15.9500000000003 COL00004#3 + 346.4 COL00006#5
           + 152.55 COL00011#10 + 869.1 COL00012#11 + 47.3 COL00014#13
           + 88.0000000000001 COL00015#14 + 27.5 COL00018#17
           + 499.4 COL00019#18 + 166.4 COL00043#42
           + 2.20000000000005 COL00044#43 + 15.9500000000003 COL00046#45
           + 346.4 COL00048#47 + 152.55 COL00053#52 + 869.1 COL00054#53
           + 47.3 COL00056#55 + 88.0000000000001 COL00057#56 + 27.5 COL00060#59
           + 499.4 COL00061#60 + 1.07803468208092 _eta#63 >= 202089.234521876
 cut_1037: 119.1 COL00001#0 + 2.19999999999993 COL00002#1
           + 15.9499999999999 COL00004#3 + 705.85 COL00005#4 + 642.3 COL00009#8
           + 778 COL00010#9 + 105.25 COL00011#10 + 33.925 COL00012#11
           + 87.9999999999999 COL00015#14 + 27.5 COL00018#17
           + 533.05 COL00020#19 + 119.1 COL00043#42
           + 2.19999999999993 COL00044#43 + 15.9499999999999 COL00046#45
           + 705.85 COL00047#46 + 642.3 COL00051#50 + 778 COL00052#51
           + 105.25 COL00053#52 + 33.925 COL00054#53
           + 87.9999999999999 COL00057#56 + 27.5 COL00060#59
           + 533.05 COL00062#61 + 1.07492795389049 _eta#63 >= 201966.26846249
 cut_1039: 166.4 COL00001#0 + 2.20000000000005 COL00002#1
           + 15.9500000000003 COL00004#3 + 346.4 COL00006#5
           + 152.55 COL00011#10 + 869.1 COL00012#11 + 47.3 COL00014#13
           + 88.0000000000001 COL00015#14 + 27.5 COL00018#17
           + 499.4 COL00019#18 + 166.4 COL00043#42
           + 2.20000000000005 COL00044#43 + 15.9500000000003 COL00046#45
           + 346.4 COL00048#47 + 152.55 COL00053#52 + 869.1 COL00054#53
           + 47.3 COL00056#55 + 88.0000000000001 COL00057#56 + 27.5 COL00060#59
           + 499.4 COL00061#60 + 1.07183908045977 _eta#63 >= 202089.234521876
 cut_1043: 119.1 COL00001#0 + 2.19999999999993 COL00002#1
           + 15.9499999999999 COL00004#3 + 705.85 COL00005#4 + 642.3 COL00009#8
           + 778 COL00010#9 + 105.25 COL00011#10 + 33.925 COL00012#11
           + 87.9999999999999 COL00015#14 + 27.5 COL00018#17
           + 533.05 COL00020#19 + 119.1 COL00043#42
           + 2.19999999999993 COL00044#43 + 15.9499999999999 COL00046#45
           + 705.85 COL00047#46 + 642.3 COL00051#50 + 778 COL00052#51
           + 105.25 COL00053#52 + 33.925 COL00054#53
           + 87.9999999999999 COL00057#56 + 27.5 COL00060#59
           + 533.05 COL00062#61 + 1.06876790830946 _eta#63 >= 201966.26846249
 cut_1045: 166.4 COL00001#0 + 2.20000000000005 COL00002#1
           + 15.9500000000003 COL00004#3 + 346.4 COL00006#5
           + 152.55 COL00011#10 + 869.1 COL00012#11 + 47.3 COL00014#13
           + 88.0000000000001 COL00015#14 + 27.5 COL00018#17
           + 499.4 COL00019#18 + 166.4 COL00043#42
           + 2.20000000000005 COL00044#43 + 15.9500000000003 COL00046#45
           + 346.4 COL00048#47 + 152.55 COL00053#52 + 869.1 COL00054#53
           + 47.3 COL00056#55 + 88.0000000000001 COL00057#56 + 27.5 COL00060#59
           + 499.4 COL00061#60 + 1.06571428571429 _eta#63 >= 202089.234521876
 cut_1049: 119.1 COL00001#0 + 2.19999999999993 COL00002#1
           + 15.9499999999999 COL00004#3 + 705.85 COL00005#4 + 642.3 COL00009#8
           + 778 COL00010#9 + 105.25 COL00011#10 + 33.925 COL00012#11
           + 87.9999999999999 COL00015#14 + 27.5 COL00018#17
           + 533.05 COL00020#19 + 119.1 COL00043#42
           + 2.19999999999993 COL00044#43 + 15.9499999999999 COL00046#45
           + 705.85 COL00047#46 + 642.3 COL00051#50 + 778 COL00052#51
           + 105.25 COL00053#52 + 33.925 COL00054#53
           + 87.9999999999999 COL00057#56 + 27.5 COL00060#59
           + 533.05 COL00062#61 + 1.06267806267806 _eta#63 >= 201966.26846249
 cut_1051: 166.4 COL00001#0 + 2.20000000000005 COL00002#1
           + 15.9500000000003 COL00004#3 + 346.4 COL00006#5
           + 152.55 COL00011#10 + 869.1 COL00012#11 + 47.3 COL00014#13
           + 88.0000000000001 COL00015#14 + 27.5 COL00018#17
           + 499.4 COL00019#18 + 166.4 COL00043#42
           + 2.20000000000005 COL00044#43 + 15.9500000000003 COL00046#45
           + 346.4 COL00048#47 + 152.55 COL00053#52 + 869.1 COL00054#53
           + 47.3 COL00056#55 + 88.0000000000001 COL00057#56 + 27.5 COL00060#59
           + 499.4 COL00061#60 + 1.05965909090909 _eta#63 >= 202089.234521876
 cut_1055: 119.1 COL00001#0 + 2.19999999999993 COL00002#1
           + 15.9499999999999 COL00004#3 + 705.85 COL00005#4 + 642.3 COL00009#8
           + 778 COL00010#9 + 105.25 COL00011#10 + 33.925 COL00012#11
           + 87.9999999999999 COL00015#14 + 27.5 COL00018#17
           + 533.05 COL00020#19 + 119.1 COL00043#42
           + 2.19999999999993 COL00044#43 + 15.9499999999999 COL00046#45
           + 705.85 COL00047#46 + 642.3 COL00051#50 + 778 COL00052#51
           + 105.25 COL00053#52 + 33.925 COL00054#53
           + 87.9999999999999 COL00057#56 + 27.5 COL00060#59
           + 533.05 COL00062#61 + 1.05665722379603 _eta#63 >= 201966.26846249
 cut_1057: 166.4 COL00001#0 + 2.20000000000005 COL00002#1
           + 15.9500000000003 COL00004#3 + 346.4 COL00006#5
           + 152.55 COL00011#10 + 869.1 COL00012#11
           + 47.2999999999999 COL00014#13 + 88.0000000000001 COL00015#14
           + 27.5 COL00018#17 + 499.4 COL00019#18 + 166.4 COL00043#42
           + 2.20000000000005 COL00044#43 + 15.9500000000003 COL00046#45
           + 346.4 COL00048#47 + 152.55 COL00053#52 + 869.1 COL00054#53
           + 47.2999999999999 COL00056#55 + 88.0000000000001 COL00057#56
           + 27.5 COL00060#59 + 499.4 COL00061#60 + 1.05367231638418 _eta#63
           >= 202089.234521877
 cut_1061: 119.1 COL00001#0 + 2.19999999999993 COL00002#1
           + 15.9499999999999 COL00004#3 + 705.85 COL00005#4 + 642.3 COL00009#8
           + 778 COL00010#9 + 105.25 COL00011#10 + 33.925 COL00012#11
           + 87.9999999999999 COL00015#14 + 27.5 COL00018#17
           + 533.05 COL00020#19 + 119.1 COL00043#42
           + 2.19999999999993 COL00044#43 + 15.9499999999999 COL00046#45
           + 705.85 COL00047#46 + 642.3 COL00051#50 + 778 COL00052#51
           + 105.25 COL00053#52 + 33.925 COL00054#53
           + 87.9999999999999 COL00057#56 + 27.5 COL00060#59
           + 533.05 COL00062#61 + 1.05070422535211 _eta#63 >= 201966.26846249
 cut_1063: 166.4 COL00001#0 + 2.20000000000005 COL00002#1
           + 15.9500000000003 COL00004#3 + 346.4 COL00006#5
           + 152.55 COL00011#10 + 869.1 COL00012#11 + 47.3 COL00014#13
           + 88.0000000000001 COL00015#14 + 27.5 COL00018#17
           + 499.4 COL00019#18 + 166.4 COL00043#42
           + 2.20000000000005 COL00044#43 + 15.9500000000003 COL00046#45
           + 346.4 COL00048#47 + 152.55 COL00053#52 + 869.1 COL00054#53
           + 47.3 COL00056#55 + 88.0000000000001 COL00057#56 + 27.5 COL00060#59
           + 499.4 COL00061#60 + 1.04775280898876 _eta#63 >= 202089.234521876
 cut_1065: 119.1 COL00001#0 + 2.19999999999993 COL00002#1
           + 15.9499999999999 COL00004#3 + 705.85 COL00005#4 + 642.3 COL00009#8
           + 778 COL00010#9 + 105.25 COL00011#10 + 33.925 COL00012#11
           + 87.9999999999999 COL00015#14 + 27.5 COL00018#17
           + 533.05 COL00020#19 + 119.1 COL00043#42
           + 2.19999999999993 COL00044#43 + 15.9499999999999 COL00046#45
           + 705.85 COL00047#46 + 642.3 COL00051#50 + 778 COL00052#51
           + 105.25 COL00053#52 + 33.925 COL00054#53
           + 87.9999999999999 COL00057#56 + 27.5 COL00060#59
           + 533.05 COL00062#61 + 1.04481792717087 _eta#63 >= 201966.26846249
 cut_1066: 166.4 COL00001#0 + 2.20000000000005 COL00002#1
           + 15.9500000000003 COL00004#3 + 346.4 COL00006#5
           + 152.55 COL00011#10 + 869.1 COL00012#11 + 47.3 COL00014#13
           + 88.0000000000001 COL00015#14 + 27.5 COL00018#17
           + 499.4 COL00019#18 + 166.4 COL00043#42
           + 2.20000000000005 COL00044#43 + 15.9500000000003 COL00046#45
           + 346.4 COL00048#47 + 152.55 COL00053#52 + 869.1 COL00054#53
           + 47.3 COL00056#55 + 88.0000000000001 COL00057#56 + 27.5 COL00060#59
           + 499.4 COL00061#60 + 1.04189944134078 _eta#63 >= 202089.234521876
 cut_1068: 119.1 COL00001#0 + 2.19999999999993 COL00002#1
           + 15.9499999999999 COL00004#3 + 705.85 COL00005#4 + 642.3 COL00009#8
           + 778 COL00010#9 + 105.25 COL00011#10 + 33.925 COL00012#11
           + 87.9999999999999 COL00015#14 + 27.5 COL00018#17
           + 533.05 COL00020#19 + 119.1 COL00043#42
           + 2.19999999999993 COL00044#43 + 15.9499999999999 COL00046#45
           + 705.85 COL00047#46 + 642.3 COL00051#50 + 778 COL00052#51
           + 105.25 COL00053#52 + 33.925 COL00054#53
           + 87.9999999999999 COL00057#56 + 27.5 COL00060#59
           + 533.05 COL00062#61 + 1.03899721448468 _eta#63 >= 201966.26846249
 cut_1069: 166.4 COL00001#0 + 2.20000000000005 COL00002#1
           + 15.9500000000003 COL00004#3 + 346.4 COL00006#5
           + 152.55 COL00011#10 + 869.1 COL00012#11 + 47.3 COL00014#13
           + 88.0000000000001 COL00015#14 + 27.5 COL00018#17
           + 499.4 COL00019#18 + 166.4 COL00043#42
           + 2.20000000000005 COL00044#43 + 15.9500000000003 COL00046#45
           + 346.4 COL00048#47 + 152.55 COL00053#52 + 869.1 COL00054#53
           + 47.3 COL00056#55 + 88.0000000000001 COL00057#56 + 27.5 COL00060#59
           + 499.4 COL00061#60 + 1.03611111111111 _eta#63 >= 202089.234521876
 cut_1071: 119.1 COL00001#0 + 2.19999999999993 COL00002#1
           + 15.9499999999999 COL00004#3 + 705.85 COL00005#4 + 642.3 COL00009#8
           + 778 COL00010#9 + 105.25 COL00011#10 + 33.925 COL00012#11
           + 87.9999999999999 COL00015#14 + 27.5 COL00018#17
           + 533.05 COL00020#19 + 119.1 COL00043#42
           + 2.19999999999993 COL00044#43 + 15.9499999999999 COL00046#45
           + 705.85 COL00047#46 + 642.3 COL00051#50 + 778 COL00052#51
           + 105.25 COL00053#52 + 33.925 COL00054#53
           + 87.9999999999999 COL00057#56 + 27.5 COL00060#59
           + 533.05 COL00062#61 + 1.03324099722992 _eta#63 >= 201966.26846249
 cut_1072: 166.4 COL00001#0 + 2.20000000000005 COL00002#1
           + 15.9500000000003 COL00004#3 + 346.4 COL00006#5
           + 152.55 COL00011#10 + 869.1 COL00012#11 + 47.3 COL00014#13
           + 88.0000000000001 COL00015#14 + 27.5 COL00018#17
           + 499.4 COL00019#18 + 166.4 COL00043#42
           + 2.20000000000005 COL00044#43 + 15.9500000000003 COL00046#45
           + 346.4 COL00048#47 + 152.55 COL00053#52 + 869.1 COL00054#53
           + 47.3 COL00056#55 + 88.0000000000001 COL00057#56 + 27.5 COL00060#59
           + 499.4 COL00061#60 + 1.03038674033149 _eta#63 >= 202089.234521876
 cut_1074: 119.1 COL00001#0 + 2.19999999999993 COL00002#1
           + 15.9499999999999 COL00004#3 + 705.85 COL00005#4 + 642.3 COL00009#8
           + 778 COL00010#9 + 105.25 COL00011#10 + 33.925 COL00012#11
           + 87.9999999999999 COL00015#14 + 27.5 COL00018#17
           + 533.05 COL00020#19 + 119.1 COL00043#42
           + 2.19999999999993 COL00044#43 + 15.9499999999999 COL00046#45
           + 705.85 COL00047#46 + 642.3 COL00051#50 + 778 COL00052#51
           + 105.25 COL00053#52 + 33.925 COL00054#53
           + 87.9999999999999 COL00057#56 + 27.5 COL00060#59
           + 533.05 COL00062#61 + 1.02754820936639 _eta#63 >= 201966.26846249
 cut_1075: 166.4 COL00001#0 + 2.20000000000005 COL00002#1
           + 15.9500000000003 COL00004#3 + 346.4 COL00006#5
           + 152.55 COL00011#10 + 869.1 COL00012#11 + 47.3 COL00014#13
           + 88.0000000000001 COL00015#14 + 27.5 COL00018#17
           + 499.4 COL00019#18 + 166.4 COL00043#42
           + 2.20000000000005 COL00044#43 + 15.9500000000003 COL00046#45
           + 346.4 COL00048#47 + 152.55 COL00053#52 + 869.1 COL00054#53
           + 47.3 COL00056#55 + 88.0000000000001 COL00057#56 + 27.5 COL00060#59
           + 499.4 COL00061#60 + 1.02472527472527 _eta#63 >= 202089.234521877
 cut_1077: 119.1 COL00001#0 + 2.19999999999993 COL00002#1
           + 15.9499999999999 COL00004#3 + 705.85 COL00005#4 + 642.3 COL00009#8
           + 778 COL00010#9 + 105.25 COL00011#10 + 33.925 COL00012#11
           + 87.9999999999999 COL00015#14 + 27.5 COL00018#17
           + 533.05 COL00020#19 + 119.1 COL00043#42
           + 2.19999999999993 COL00044#43 + 15.9499999999999 COL00046#45
           + 705.85 COL00047#46 + 642.3 COL00051#50 + 778 COL00052#51
           + 105.25 COL00053#52 + 33.925 COL00054#53
           + 87.9999999999999 COL00057#56 + 27.5 COL00060#59
           + 533.05 COL00062#61 + 1.02191780821918 _eta#63 >= 201966.26846249
 cut_1078: 166.4 COL00001#0 + 2.20000000000005 COL00002#1
           + 15.9500000000003 COL00004#3 + 346.4 COL00006#5
           + 152.55 COL00011#10 + 869.1 COL00012#11 + 47.3 COL00014#13
           + 88.0000000000001 COL00015#14 + 27.5 COL00018#17
           + 499.4 COL00019#18 + 166.4 COL00043#42
           + 2.20000000000005 COL00044#43 + 15.9500000000003 COL00046#45
           + 346.4 COL00048#47 + 152.55 COL00053#52 + 869.1 COL00054#53
           + 47.3 COL00056#55 + 88.0000000000001 COL00057#56 + 27.5 COL00060#59
           + 499.4 COL00061#60 + 1.01912568306011 _eta#63 >= 202089.234521876
 cut_1080: 119.1 COL00001#0 + 2.19999999999993 COL00002#1
           + 15.9499999999999 COL00004#3 + 705.85 COL00005#4 + 642.3 COL00009#8
           + 778 COL00010#9 + 105.25 COL00011#10 + 33.925 COL00012#11
           + 87.9999999999999 COL00015#14 + 27.5 COL00018#17
           + 533.05 COL00020#19 + 119.1 COL00043#42
           + 2.19999999999993 COL00044#43 + 15.9499999999999 COL00046#45
           + 705.85 COL00047#46 + 642.3 COL00051#50 + 778 COL00052#51
           + 105.25 COL00053#52 + 33.925 COL00054#53
           + 87.9999999999999 COL00057#56 + 27.5 COL00060#59
           + 533.05 COL00062#61 + 1.01634877384196 _eta#63 >= 201966.26846249
 cut_1081: 166.4 COL00001#0 + 2.20000000000005 COL00002#1
           + 15.9500000000003 COL00004#3 + 346.4 COL00006#5
           + 152.55 COL00011#10 + 869.1 COL00012#11 + 47.3 COL00014#13
           + 88.0000000000001 COL00015#14 + 27.5 COL00018#17
           + 499.4 COL00019#18 + 166.4 COL00043#42
           + 2.20000000000005 COL00044#43 + 15.9500000000003 COL00046#45
           + 346.4 COL00048#47 + 152.55 COL00053#52 + 869.1 COL00054#53
           + 47.3 COL00056#55 + 88.0000000000001 COL00057#56 + 27.5 COL00060#59
           + 499.4 COL00061#60 + 1.01358695652174 _eta#63 >= 202089.234521876
 cut_1083: 119.1 COL00001#0 + 2.19999999999993 COL00002#1
           + 15.9499999999999 COL00004#3 + 705.85 COL00005#4 + 642.3 COL00009#8
           + 778 COL00010#9 + 105.25 COL00011#10 + 33.925 COL00012#11
           + 87.9999999999999 COL00015#14 + 27.5 COL00018#17
           + 533.05 COL00020#19 + 119.1 COL00043#42
           + 2.19999999999993 COL00044#43 + 15.9499999999999 COL00046#45
           + 705.85 COL00047#46 + 642.3 COL00051#50 + 778 COL00052#51
           + 105.25 COL00053#52 + 33.925 COL00054#53
           + 87.9999999999999 COL00057#56 + 27.5 COL00060#59
           + 533.05 COL00062#61 + 1.01084010840108 _eta#63 >= 201966.26846249
 cut_1084: 166.4 COL00001#0 + 2.20000000000005 COL00002#1
           + 15.9500000000003 COL00004#3 + 346.4 COL00006#5
           + 152.55 COL00011#10 + 869.1 COL00012#11
           + 47.2999999999999 COL00014#13 + 88.0000000000001 COL00015#14
           + 27.5 COL00018#17 + 499.4 COL00019#18 + 166.4 COL00043#42
           + 2.20000000000005 COL00044#43 + 15.9500000000003 COL00046#45
           + 346.4 COL00048#47 + 152.55 COL00053#52 + 869.1 COL00054#53
           + 47.2999999999999 COL00056#55 + 88.0000000000001 COL00057#56
           + 27.5 COL00060#59 + 499.4 COL00061#60 + 1.00810810810811 _eta#63
           >= 202089.234521877
 cut_1086: 119.1 COL00001#0 + 2.19999999999993 COL00002#1
           + 15.9499999999999 COL00004#3 + 705.85 COL00005#4 + 642.3 COL00009#8
           + 778 COL00010#9 + 105.25 COL00011#10 + 33.925 COL00012#11
           + 87.9999999999999 COL00015#14 + 27.5 COL00018#17
           + 533.05 COL00020#19 + 119.1 COL00043#42
           + 2.19999999999993 COL00044#43 + 15.9499999999999 COL00046#45
           + 705.85 COL00047#46 + 642.3 COL00051#50 + 778 COL00052#51
           + 105.25 COL00053#52 + 33.925 COL00054#53
           + 87.9999999999999 COL00057#56 + 27.5 COL00060#59
           + 533.05 COL00062#61 + 1.00539083557951 _eta#63 >= 201966.26846249
 cut_1087: 166.4 COL00001#0 + 2.20000000000005 COL00002#1
           + 15.9500000000003 COL00004#3 + 346.4 COL00006#5
           + 152.55 COL00011#10 + 869.1 COL00012#11 + 47.3 COL00014#13
           + 88.0000000000001 COL00015#14 + 27.5 COL00018#17
           + 499.4 COL00019#18 + 166.4 COL00043#42
           + 2.20000000000005 COL00044#43 + 15.9500000000003 COL00046#45
           + 346.4 COL00048#47 + 152.55 COL00053#52 + 869.1 COL00054#53
           + 47.3 COL00056#55 + 88.0000000000001 COL00057#56 + 27.5 COL00060#59
           + 499.4 COL00061#60 + 1.00268817204301 _eta#63 >= 202089.234521876
 cut_1088: 119.1 COL00001#0 + 2.20000000000005 COL00002#1
           + 15.9499999999999 COL00004#3 + 393.7 COL00006#5 + 642.3 COL00009#8
           + 105.25 COL00011#10 + 869.1 COL00012#11
           + 87.9999999999999 COL00015#14 + 27.5 COL00018#17
           + 499.4 COL00019#18 + 119.1 COL00043#42
           + 2.20000000000005 COL00044#43 + 15.9499999999999 COL00046#45
           + 393.7 COL00048#47 + 642.3 COL00051#50 + 105.25 COL00053#52
           + 869.1 COL00054#53 + 87.9999999999999 COL00057#56
           + 27.5 COL00060#59 + 499.4 COL00061#60 + 1.00268817204301 _eta#63
           >= 202109.035358031
 cut_1089: 119.1 COL00001#0 + 2.19999999999993 COL00002#1
           + 15.9499999999999 COL00004#3 + 705.85 COL00005#4 + 642.3 COL00009#8
           + 778 COL00010#9 + 105.25 COL00011#10 + 33.925 COL00012#11
           + 87.9999999999999 COL00015#14 + 27.5 COL00018#17
           + 533.05 COL00020#19 + 119.1 COL00043#42
           + 2.19999999999993 COL00044#43 + 15.9499999999999 COL00046#45
           + 705.85 COL00047#46 + 642.3 COL00051#50 + 778 COL00052#51
           + 105.25 COL00053#52 + 33.925 COL00054#53
           + 87.9999999999999 COL00057#56 + 27.5 COL00060#59
           + 533.05 COL00062#61 + _eta#63 >= 201966.26846249
Bounds
      COL00001#0 >= -328.886374309096
      COL00002#1 >= -8.41677115388172
      COL00003#2 >= -27.188334162831
      COL00004#3 >= -3.01463418332003
      COL00005#4 >= -13.2710369997748
      COL00006#5 >= -18.0750447213757
      COL00007#6 >= -8.77518590774353
      COL00008#7 >= -5.5680392683484
      COL00009#8 >= -4.43616925219081
      COL00010#9 >= -9.12326933495343
      COL00011#10 >= -14.9482680692119
      COL00012#11 >= -18.3722208876692
      COL00013#12 >= -18.6165426666639
      COL00014#13 >= -12.5303454412347
      COL00015#14 >= -14.8203857162004
      COL00016#15 >= -10.8565819229973
      COL00017#16 >= -20.7524868628212
      COL00018#17 >= -16.1751058118867
      COL00019#18 >= -22.2098727512853
      COL00020#19 >= -9.92683527990641
      COL00021#20 >= -14.036495296608
      COL00022#21 >= -110.036037035202
      COL00023#22 >= -13.6204730681333
      COL00024#23 >= -16.2497719575079
      COL00025#24 >= -12.9247716350628
      COL00026#25 >= -13.9250029884829
      COL00027#26 >= -14.4152748192099
      COL00028#27 >= -13.999731720367
      COL00029#28 >= -13.6623094982768
      COL00030#29 >= -13.5520525419756
      COL00031#30 >= -13.0646920363973
      COL00032#31 >= -16.7864770778856
      COL00033#32 >= -15.2158365573468
      COL00034#33 >= -16.0365865306334
      COL00035#34 >= -13.8986281927747
      COL00036#35 >= -14.2676040436598
      COL00037#36 >= -13.4401013836878
      COL00038#37 >= -16.9904332077724
      COL00039#38 >= -14.9301135690523
      COL00040#39 >= -15.1149244653758
      COL00041#40 >= -14.0764808308882
      COL00042#41 >= -13.792696840308
      COL00043#42 >= -125.055230662435
      COL00044#43 >= -12.3879768300708
      COL00045#44 >= -23.4120573709987
      COL00046#45 >= -5.93852895977468
      COL00047#46 >= -17.2311587534563
      COL00048#47 >= -20.4221473287786
      COL00049#48 >= -12.7967363243714
      COL00050#49 >= -9.16019710457727
      COL00051#50 >= -8.03426887617238
      COL00052#51 >= -13.4153949201415
      COL00053#52 >= -17.393463326254
      COL00054#53 >= -17.0866854482349
      COL00055#54 >= -17.2666865907856
      COL00056#55 >= -14.7007036034905
      COL00057#56 >= -17.8478547336213
      COL00058#57 >= -14.9811340571779
      COL00059#58 >= -21.0117706563099
      COL00060#59 >= -17.425463526389
      COL00061#60 >= -22.1804268680085
      COL00062#61 >= -14.6124217724693
      COL00063#62 >= -17.1314917210924
      _eta#63 Free
End
