\ENCODING=ISO-8859-1
\Problem name: 4node_0

Minimize
 obj1: 50 X0.0 + 65 X1.0 + 45 X2.0 + 70 X3.0 + 60 X4.0 + 55 X5.0 + 50 X6.0
       + 60 X7.0 + 55 X8.0 + 40 X9.0 + 45 X10.0 + 80 X11.0 + 65 X12.0
       + 50 X13.0 + 45 X14.0 + 60 X15.0 + 80 X16.0 + 60 X17.0 + 65 X18.0
       + 70 X19.0 + 60 X20.0 + 40 X21.0 + 45 X22.0 + 60 X23.0 + 50 X24.0
       + 65 X25.0 + 60 X0.1 + 62.4 X1.1 + 43.2 X2.1 + 67.2 X3.1 + 57.6 X4.1
       + 52.8 X5.1 + 48 X6.1 + 57.6 X7.1 + 52.8 X8.1 + 38.4 X9.1 + 43.2 X10.1
       + 76.8 X11.1 + 62.4 X12.1 + 48 X13.1 + 43.2 X14.1 + 57.6 X15.1
       + 76.8 X16.1 + 57.6 X17.1 + 62.4 X18.1 + 67.2 X19.1 + 57.6 X20.1
       + 38.4 X21.1 + 43.2 X22.1 + 57.6 X23.1 + 43.2 X24.1 + 62.4 X25.1
Subject To
 MLA:   X0.0 + X3.0 + X6.0 + X7.0 + X8.0 + X15.0 + X18.0 + X19.0 + X20.0
        + X22.0 + X0.1 + X3.1 + X6.1 + X7.1 + X8.1 + X15.1 + X18.1 + X19.1
        + X20.1 + X22.1 <= 25
 MLB:   X0.0 + X1.0 + X2.0 + X5.0 + X6.0 + X9.0 + X11.0 + X14.0 + X16.0 + X17.0
        + X18.0 + X20.0 + X21.0 + X22.0 + X23.0 + X25.0 + X0.1 + X1.1 + X2.1
        + X5.1 + X6.1 + X9.1 + X11.1 + X14.1 + X16.1 + X17.1 + X18.1 + X20.1
        + X21.1 + X22.1 + X23.1 + X25.1 <= 25
 MLC:   X2.0 + X3.0 + X4.0 + X5.0 + X7.0 + X8.0 + X9.0 + X10.0 + X12.0 + X13.0
        + X14.0 + X15.0 + X17.0 + X19.0 + X21.0 + X24.0 + X2.1 + X3.1 + X4.1
        + X5.1 + X7.1 + X8.1 + X9.1 + X10.1 + X12.1 + X13.1 + X14.1 + X15.1
        + X17.1 + 2 X19.1 + X21.1 <= 25
 MLE:   X1.0 + X4.0 + X10.0 + X11.0 + X12.0 + X13.0 + X16.0 + X23.0 + X24.0
        + X25.0 + X1.1 + X4.1 + X10.1 + X11.1 + X12.1 + X13.1 + X16.1 + X23.1
        + X24.1 + X25.1 <= 25
 CYA0:  X1.0 + X2.0 + X4.0 + X5.0 - X8.0 - X15.0 - X18.0 - X22.0  = 0
 CYA1:  X1.1 + X2.1 + X4.1 + X5.1 - X8.1 - X15.1 - X18.1 - X22.1  = 0
 CYB0:  - X5.0 + X7.0 + X8.0 + X10.0 + X12.0 - X14.0 - X20.0 - X25.0  = 0
 CYB1:  - X5.1 + X7.1 + X8.1 + X10.1 + X12.1 - X14.1 - X20.1 - X25.1  = 0
 CYC0:  - X2.0 - X7.0 - X12.0 - X17.0 + X20.0 + X22.0 + X23.0 + X25.0  = 0
 CYC1:  - X2.1 - X7.1 - X12.1 - X17.1 + X20.1 + X22.1 + X23.1 + X25.1  = 0
 MXFH0: 10 X0.0 + 13 X1.0 + 9 X2.0 + 14 X3.0 + 12 X4.0 + 11 X5.0 + 10 X6.0
        + 12 X7.0 + 11 X8.0 + 8 X9.0 + 9 X10.0 + 16 X11.0 + 13 X12.0 + 10 X13.0
        + 9 X14.0 + 12 X15.0 + 16 X16.0 + 12 X17.0 + 13 X18.0 + 14 X19.0
        + 12 X20.0 + 8 X21.0 + 9 X22.0 + 12 X23.0 + 10 X24.0 + 13 X25.0 <= 480
 MXFH1: 12 X0.1 + 15.6 X1.1 + 10.8 X2.1 + 16.8 X3.1 + 14.4 X4.1 + 13.2 X5.1
        + 12 X6.1 + 14.4 X7.1 + 13.2 X8.1 + 9.6 X9.1 + 10.8 X10.1 + 19.2 X11.1
        + 15.6 X12.1 + 12 X13.1 + 10.8 X14.1 + 14.4 X15.1 + 19.2 X16.1
        + 14.4 X17.1 + 15.6 X18.1 + 16.8 X19.1 + 14.4 X20.1 + 9.6 X21.1
        + 10.8 X22.1 + 14.4 X23.1 + 12 X24.1 + 15.6 X25.1 <= 240
 MNFH0: 10 X0.0 + 13 X1.0 + 9 X2.0 + 14 X3.0 + 12 X4.0 + 11 X5.0 + 10 X6.0
        + 12 X7.0 + 11 X8.0 + 8 X9.0 + 9 X10.0 + 16 X11.0 + 13 X12.0 + 10 X13.0
        + 9 X14.0 + 12 X15.0 + 16 X16.0 + 12 X17.0 + 13 X18.0 + 14 X19.0
        + 12 X20.0 + 8 X21.0 + 9 X22.0 + 12 X23.0 + 10 X24.0 + 13 X25.0 >= 0
 MNFH1: 12 X0.1 + 15.6 X1.1 + 10.8 X2.1 + 16.8 X3.1 + 14.4 X4.1 + 13.2 X5.1
        + 12 X6.1 + 14.4 X7.1 + 13.2 X8.1 + 9.6 X9.1 + 10.8 X10.1 + 19.2 X11.1
        + 15.6 X12.1 + 12 X13.1 + 10.8 X14.1 + 14.4 X15.1 + 19.2 X16.1
        + 14.4 X17.1 + 15.6 X18.1 + 16.8 X19.1 + 14.4 X20.1 + 9.6 X21.1
        + 10.8 X22.1 + 14.4 X23.1 + 12 X24.1 + 15.6 X25.1 >= 0
End
